
(set-logic ALL) 

(declare-datatype MyList ((Nil) (Cons (head Real) (tail MyList)) )) 
(declare-fun l0 () MyList) 
(declare-fun l1 () MyList) 
(declare-fun l2 () MyList) 
(declare-fun l3 () MyList) 
(declare-fun i0 () Real) 
(declare-fun i1 () Real) 
(assert (not (= l2 l0)) )
(assert (and (= l0 Nil) (is-Cons Nil) (= l2 Nil)) )
(assert (or (is-Cons Nil) (= l1 Nil) (= l3 l1) (= l2 Nil)) )
(assert (= l2 Nil) )
(assert (and (= l0 Nil) (is-Cons Nil) (= l3 l3)) )
(assert (is-Nil Nil) )
(assert (is-Nil Nil) )
(assert (not (= l0 Nil)) )
(check-sat)
